db/inputs/2071414712331621023793220893247216146.smt2
(set-logic QF_FP)
(declare-const x0 (_ FloatingPoint 8 24))
(declare-const x1 (_ FloatingPoint 8 24))
(declare-const x2 (_ FloatingPoint 8 24))
(assert (fp.lt (fp.mul RNE x0 x1) (fp.neg x1)))
(assert (fp.eq (fp.mul RNE x2 x1) (fp.sub RNE x2 x0)))
(assert (fp.lt (fp.div RNE x0 x0) (fp.neg x2)))
(assert (fp.lt (fp.mul RNE x0 x0) (fp.sub RNE x2 x0)))
(check-sat)
