db/data/2071414712331621023793220893247216146.z3.out
unsat
-------------------
4.926675337
